25 
300 
4.6 7.1 0 0
5 5.6 0 -109
5.7 11.4 20 -26
4.4 12.3 -20 -79
2.8 14.3 -30 -117
3.2 10.3 -15 -137
3.5 9.8 15 -23
4.4 8.4 10 -16
7.8 11 20 -29
8.8 9.8 -20 -131
7.7 8.2 -20 -116
6.3 7.9 -15 -69
5.4 8.2 -10 -137
5.8 6.8 10 -12
6.7 5.8 -25 -133
13.8 13.1 -40 -76
14.1 14.2 -40 -125
11.2 13.6 -30 -115
9.7 16.4 -30 -133
9.5 18.8 -50 -132
4.7 16.8 30 -12
